p edge 182 294
e 1 128
e 2 145
e 3 145
e 4 145
e 5 145
e 6 145
e 6 140
e 7 145
e 7 141
e 8 9
e 8 10
e 8 11
e 8 12
e 8 13
e 9 151
e 9 158
e 10 13
e 10 157
e 13 14
e 15 44
e 16 130
e 17 109
e 17 130
e 17 140
e 17 149
e 17 176
e 18 109
e 18 40
e 18 130
e 18 145
e 18 149
e 18 176
e 19 109
e 20 109
e 21 130
e 22 176
e 23 176
e 24 176
e 25 176
e 26 149
e 27 150
e 28 149
e 29 149
e 30 150
e 31 149
e 31 150
e 32 33
e 32 34
e 32 35
e 32 36
e 32 37
e 32 38
e 32 39
e 32 40
e 32 41
e 33 42
e 33 40
e 34 42
e 35 42
e 36 42
e 37 42
e 38 42
e 39 42
e 39 40
e 40 42
e 40 125
e 40 127
e 40 100
e 40 81
e 40 82
e 40 83
e 40 84
e 40 126
e 40 85
e 40 128
e 40 94
e 40 111
e 41 42
e 41 131
e 41 128
e 43 44
e 43 45
e 43 46
e 43 47
e 44 47
e 44 45
e 44 46
e 45 127
e 46 127
e 48 150
e 49 150
e 49 116
e 50 149
e 51 150
e 52 149
e 53 150
e 54 149
e 54 150
e 55 149
e 55 150
e 56 149
e 56 150
e 57 149
e 57 150
e 58 149
e 58 150
e 59 149
e 60 150
e 61 149
e 61 116
e 62 150
e 63 149
e 64 149
e 65 149
e 66 150
e 67 149
e 68 149
e 69 150
e 70 113
e 70 128
e 70 149
e 70 150
e 70 160
e 70 157
e 70 158
e 70 165
e 70 116
e 70 162
e 71 130
e 71 150
e 71 157
e 71 159
e 71 165
e 71 162
e 72 149
e 73 150
e 74 152
e 74 160
e 75 128
e 76 140
e 77 140
e 78 140
e 79 139
e 79 140
e 80 140
e 82 116
e 86 140
e 87 128
e 88 140
e 89 140
e 90 128
e 91 128
e 92 129
e 92 146
e 92 128
e 93 146
e 94 146
e 95 149
e 95 150
e 96 146
e 97 146
e 98 129
e 98 146
e 98 128
e 99 128
e 100 139
e 100 140
e 101 128
e 102 103
e 103 128
e 104 105
e 104 106
e 104 107
e 106 151
e 107 151
e 108 147
e 108 128
e 110 128
e 111 139
e 112 128
e 113 114
e 113 115
e 113 116
e 113 117
e 113 118
e 113 119
e 113 120
e 113 121
e 114 166
e 114 181
e 115 150
e 115 167
e 115 117
e 115 161
e 115 181
e 116 150
e 116 138
e 116 144
e 116 167
e 116 162
e 116 117
e 116 179
e 116 181
e 116 161
e 117 158
e 117 162
e 122 127
e 123 127
e 124 127
e 125 129
e 126 129
e 128 139
e 128 138
e 128 148
e 128 135
e 131 132
e 131 133
e 131 134
e 131 135
e 131 136
e 131 137
e 131 138
e 131 139
e 131 140
e 131 141
e 131 142
e 132 135
e 132 136
e 132 144
e 135 139
e 135 172
e 136 139
e 136 172
e 138 140
e 138 149
e 138 158
e 138 172
e 139 143
e 139 140
e 140 148
e 141 173
e 141 174
e 141 144
e 141 175
e 141 176
e 142 170
e 142 173
e 142 174
e 142 144
e 142 175
e 142 176
e 148 172
e 149 150
e 152 153
e 152 154
e 152 155
e 152 156
e 152 157
e 152 158
e 152 159
e 153 160
e 154 160
e 155 160
e 156 160
e 157 160
e 157 161
e 157 162
e 157 163
e 157 164
e 157 165
e 157 158
e 158 160
e 158 166
e 158 165
e 158 167
e 158 168
e 159 160
e 159 163
e 159 162
e 159 161
e 159 165
e 162 163
e 162 182
e 165 169
e 170 171
e 170 172
e 171 173
e 172 173
e 172 177
e 172 178
e 172 179
e 174 180
e 176 179
e 177 180
l 8
